certificates/rado_a9_c227_N26.cnf
c Rad2 upper bound instance: x1 + 9*x2 - x3 = 227, interval [1,26]
p cnf 26 128
1 8 26 0
-1 -8 -26 0
2 9 26 0
-2 -9 -26 0
1 3 25 0
-1 -3 -25 0
3 10 26 0
-3 -10 -26 0
2 4 25 0
-2 -4 -25 0
4 11 26 0
-4 -11 -26 0
3 5 25 0
-3 -5 -25 0
5 12 26 0
-5 -12 -26 0
4 6 25 0
-4 -6 -25 0
6 13 26 0
-6 -13 -26 0
5 7 25 0
-5 -7 -25 0
7 14 26 0
-7 -14 -26 0
6 8 25 0
-6 -8 -25 0
8 15 26 0
-8 -15 -26 0
7 9 25 0
-7 -9 -25 0
9 16 26 0
-9 -16 -26 0
8 10 25 0
-8 -10 -25 0
10 17 26 0
-10 -17 -26 0
9 11 25 0
-9 -11 -25 0
11 18 26 0
-11 -18 -26 0
1 12 24 0
-1 -12 -24 0
10 12 25 0
-10 -12 -25 0
12 19 26 0
-12 -19 -26 0
2 13 24 0
-2 -13 -24 0
11 13 25 0
-11 -13 -25 0
13 20 26 0
-13 -20 -26 0
3 14 24 0
-3 -14 -24 0
12 14 25 0
-12 -14 -25 0
14 21 26 0
-14 -21 -26 0
4 15 24 0
-4 -15 -24 0
13 15 25 0
-13 -15 -25 0
15 22 26 0
-15 -22 -26 0
5 16 24 0
-5 -16 -24 0
14 16 25 0
-14 -16 -25 0
16 23 26 0
-16 -23 -26 0
6 17 24 0
-6 -17 -24 0
15 17 25 0
-15 -17 -25 0
17 24 26 0
-17 -24 -26 0
7 18 24 0
-7 -18 -24 0
16 18 25 0
-16 -18 -25 0
18 25 26 0
-18 -25 -26 0
8 19 24 0
-8 -19 -24 0
17 19 25 0
-17 -19 -25 0
19 26 0
-19 -26 0
9 20 24 0
-9 -20 -24 0
18 20 25 0
-18 -20 -25 0
1 21 23 0
-1 -21 -23 0
10 21 24 0
-10 -21 -24 0
19 21 25 0
-19 -21 -25 0
2 22 23 0
-2 -22 -23 0
11 22 24 0
-11 -22 -24 0
20 22 25 0
-20 -22 -25 0
3 23 0
-3 -23 0
12 23 24 0
-12 -23 -24 0
21 23 25 0
-21 -23 -25 0
4 23 24 0
-4 -23 -24 0
13 24 0
-13 -24 0
22 24 25 0
-22 -24 -25 0
5 23 25 0
-5 -23 -25 0
14 24 25 0
-14 -24 -25 0
23 25 0
-23 -25 0
6 23 26 0
-6 -23 -26 0
15 24 26 0
-15 -24 -26 0
24 25 26 0
-24 -25 -26 0
