certificates/rado_a9_c227_N26.drat
-25 -26 0
d -24 -25 -26 0
-26 0
19 0
25 0
-23 0
-17 0
-21 0
16 0
3 0
6 0
10 0
24 0
14 0
1 0
-5 0
0
